n = 19;
budget = 800000;
groceries = [|1816,24,88,152,119,1331|2772,28,224,196,143,3162|3078,9,153,270,149,2245|1602,153,126,54,84,2548|1374,36,132,78,174,2694|1410,220,110,10,103,1023|1155,75,90,55,94,3132|4860,150,390,300,50,3765|3650,140,480,130,150,1616|1824,84,102,120,80,2691|3825,27,666,117,114,2559|3470,130,130,270,74,3769|495,9,54,27,113,1648|5140,140,290,380,103,1248|4228,56,245,336,122,2743|2177,84,35,189,200,2720|6381,45,72,657,146,3445|3507,42,126,315,117,2606|1895,60,110,135,136,2218|];
requirements = [|23440,27135|608,809|3200,3520|912,1091|];